42498
1 1 0 0 0 1 0 0 1 1 0 0 0 0 1 0 0 0 1 0 0 0 0 0 0 0 0 1 1 1 
18 14 0 27 5 29 5 27 27 0 29 14 8 1 28 18 1 8 27 0 27 0 1 0 8 27 27 14 29 5 9 9 29 27 27 29 8 8 5 0 18 9 9 29 8 9 8 5 14 14 0 27 5 0 8 9 27 9 18 18 29 0 18 8 8 28 5 14 14 27 18 9 9 9 1 1 8 1 8 27 1 0 9 27 29 8 14 5 27 18 28 9 18 18 0 1 27 14 0 28 14 1 28 18 29 0 29 27 27 1 9 29 27 29 28 8 28 18 14 8 9 18 0 9 9 0 5 28 9 0 28 0 27 8 1 9 1 8 28 14 14 27 28 28 18 5 0 5 27 18 0 14 1 0 8 28 5 5 8 1 1 27 8 0 5 27 1 29 1 5 1 8 14 14 9 5 0 8 29 8 5 5 5 28 14 9 28 5 0 5 5 5 9 29 18 9 18 5 8 14 
